Set parameter TokenServer to value "license1.computecanada.ca"
Read LP format model from file Data/sens-data/complex/full-model/cw1-cc1-cv10-gam95-complex-p2.lp
Reading time = 2.34 seconds
: 971 rows, 10499 columns, 2195589 nonzeros
Gurobi Optimizer version 9.5.0 build v9.5.0rc5 (linux64)
Thread count: 64 physical cores, 64 logical processors, using up to 32 threads
Optimize a model with 971 rows, 10499 columns and 2195589 nonzeros
Model fingerprint: 0x3dba93b7
Coefficient statistics:
  Matrix range     [9e-03, 9e+01]
  Objective range  [3e+03, 5e+03]
  Bounds range     [0e+00, 0e+00]
  RHS range        [1e-06, 2e+00]

Concurrent LP optimizer: primal simplex, dual simplex, and barrier
Showing barrier log only...

Presolve removed 265 rows and 1269 columns
Presolve time: 0.59s
Presolved: 706 rows, 9230 columns, 683792 nonzeros

Ordering time: 0.00s

Barrier statistics:
 AA' NZ     : 1.387e+05
 Factor NZ  : 2.183e+05 (roughly 6 MB of memory)
 Factor Ops : 9.216e+07 (less than 1 second per iteration)
 Threads    : 30

                  Objective                Residual
Iter       Primal          Dual         Primal    Dual     Compl     Time
   0  -2.77253991e+07 -1.04217098e+05  1.11e+04 4.54e+01  2.33e+03     2s
   1  -9.35226741e+06 -1.17262746e+05  3.73e+03 2.21e+02  8.13e+02     2s
   2  -1.89485472e+06 -1.25346213e+05  7.24e+02 2.76e+00  1.61e+02     3s
   3  -3.73635690e+05 -1.15096886e+05  1.09e+02 0.00e+00  2.53e+01     4s
   4  -1.88816575e+05 -1.10175043e+05  3.42e+01 0.00e+00  8.36e+00     5s
   5  -1.37380154e+05 -1.07066672e+05  1.34e+01 0.00e+00  3.34e+00     6s
   6  -1.14964514e+05 -1.05680440e+05  4.34e+00 0.00e+00  1.15e+00     6s
   7  -1.07258960e+05 -1.04834362e+05  1.22e+00 0.00e+00  3.48e-01     8s
   8  -1.05396183e+05 -1.04491245e+05  4.65e-01 0.00e+00  1.36e-01     8s
   9  -1.04741777e+05 -1.04381445e+05  1.98e-01 0.00e+00  5.99e-02     9s
  10  -1.04414998e+05 -1.04324866e+05  6.51e-02 0.00e+00  2.18e-02    10s
  11  -1.04322102e+05 -1.04301527e+05  2.67e-02 0.00e+00  9.91e-03    11s
  12  -1.04299950e+05 -1.04288018e+05  1.75e-02 0.00e+00  6.15e-03    12s
  13  -1.04280163e+05 -1.04279346e+05  8.82e-03 0.00e+00  3.36e-03    12s
  14  -1.04274590e+05 -1.04273233e+05  6.32e-03 0.00e+00  2.15e-03    13s
  15  -1.04271931e+05 -1.04270999e+05  5.05e-03 0.00e+00  1.66e-03    14s
  16  -1.04267463e+05 -1.04270515e+05  2.78e-03 0.00e+00  1.27e-03    15s
  17  -1.04265663e+05 -1.04268249e+05  1.76e-03 0.00e+00  8.39e-04    16s
  18  -1.04265345e+05 -1.04267494e+05  1.32e-03 0.00e+00  6.43e-04    16s
  19  -1.04265156e+05 -1.04266916e+05  1.07e-03 0.00e+00  5.19e-04    17s
  20  -1.04264979e+05 -1.04266532e+05  8.26e-04 0.00e+00  4.17e-04    18s
  21  -1.04264885e+05 -1.04266392e+05  7.74e-04 0.00e+00  3.94e-04    19s
  22  -1.04264774e+05 -1.04265845e+05  6.11e-04 0.00e+00  2.95e-04    20s
  23  -1.04264715e+05 -1.04265816e+05  4.56e-04 0.00e+00  2.51e-04    20s
  24  -1.04264681e+05 -1.04265704e+05  4.34e-04 0.00e+00  2.36e-04    21s
  25  -1.04264674e+05 -1.04265563e+05  3.39e-04 0.00e+00  1.93e-04    22s
  26  -1.04264649e+05 -1.04265391e+05  3.07e-04 0.00e+00  1.68e-04    23s
  27  -1.04264662e+05 -1.04265257e+05  2.17e-04 0.00e+00  1.25e-04    24s
  28  -1.04264661e+05 -1.04265129e+05  1.92e-04 0.00e+00  1.04e-04    25s
  29  -1.04264673e+05 -1.04265069e+05  1.64e-04 0.00e+00  8.85e-05    25s
  30  -1.04264666e+05 -1.04265003e+05  1.30e-04 0.00e+00  7.21e-05    26s
  31  -1.04264677e+05 -1.04264960e+05  1.02e-04 0.00e+00  5.82e-05    27s
  32  -1.04264677e+05 -1.04264955e+05  9.99e-05 0.00e+00  5.71e-05    28s
  33  -1.04264681e+05 -1.04264936e+05  9.19e-05 0.00e+00  5.24e-05    29s
  34  -1.04264698e+05 -1.04264922e+05  7.58e-05 0.00e+00  4.46e-05    30s
  35  -1.04264707e+05 -1.04264871e+05  6.02e-05 0.00e+00  3.40e-05    30s
  36  -1.04264706e+05 -1.04264846e+05  4.88e-05 0.00e+00  2.82e-05    31s
  37  -1.04264706e+05 -1.04264816e+05  3.45e-05 0.00e+00  2.09e-05    32s
  38  -1.04264709e+05 -1.04264811e+05  3.06e-05 0.00e+00  1.90e-05    33s
  39  -1.04264713e+05 -1.04264803e+05  2.46e-05 0.00e+00  1.60e-05    33s
  40  -1.04264719e+05 -1.04264787e+05  1.93e-05 0.00e+00  1.23e-05    34s
  41  -1.04264726e+05 -1.04264774e+05  1.38e-05 0.00e+00  8.79e-06    35s
  42  -1.04264730e+05 -1.04264769e+05  9.87e-06 0.00e+00  6.77e-06    36s
  43  -1.04264734e+05 -1.04264764e+05  7.72e-06 0.00e+00  5.28e-06    37s
  44  -1.04264734e+05 -1.04264763e+05  7.03e-06 0.00e+00  4.86e-06    38s
  45  -1.04264738e+05 -1.04264757e+05  4.37e-06 0.00e+00  3.11e-06    39s
  46  -1.04264740e+05 -1.04264754e+05  3.38e-06 0.00e+00  2.43e-06    39s
  47  -1.04264741e+05 -1.04264754e+05  2.89e-06 0.00e+00  2.10e-06    40s
  48  -1.04264743e+05 -1.04264752e+05  2.10e-06 0.00e+00  1.52e-06    41s
  49  -1.04264744e+05 -1.04264751e+05  1.78e-06 0.00e+00  1.25e-06    42s
  50  -1.04264746e+05 -1.04264750e+05  1.01e-06 0.00e+00  7.76e-07    43s
  51  -1.04264746e+05 -1.04264750e+05  7.58e-07 0.00e+00  6.06e-07    44s
  52  -1.04264747e+05 -1.04264750e+05  5.06e-07 0.00e+00  4.56e-07    45s
  53  -1.04264747e+05 -1.04264749e+05  4.67e-07 0.00e+00  4.06e-07    46s
  54  -1.04264747e+05 -1.04264749e+05  3.94e-07 0.00e+00  3.40e-07    47s
  55  -1.04264748e+05 -1.04264749e+05  2.78e-07 0.00e+00  2.47e-07    48s
  56  -1.04264748e+05 -1.04264749e+05  1.71e-07 0.00e+00  1.56e-07    49s

Barrier solved model in 56 iterations and 48.88 seconds (1.28 work units)
Optimal objective -1.04264748e+05

Crossover log...

     233 DPushes remaining with DInf 0.0000000e+00                49s
      96 DPushes remaining with DInf 0.0000000e+00                51s
       0 DPushes remaining with DInf 0.0000000e+00                53s

      20 PPushes remaining with PInf 4.7262523e-04                53s
       0 PPushes remaining with PInf 1.0125590e-03                53s

  Push phase complete: Pinf 1.0125590e-03, Dinf 7.4994797e+00     53s

Iteration    Objective       Primal Inf.    Dual Inf.      Time
     229   -1.0426475e+05   0.000000e+00   7.499480e+00     53s
     335   -1.0426475e+05   3.161346e-04   0.000000e+00     56s
     453   -1.0426475e+05   6.884776e-05   2.517205e+10     61s
     736   -1.0426475e+05   0.000000e+00   2.162778e+04     68s
    1036   -1.0426475e+05   0.000000e+00   1.138498e+03     71s
Extra simplex iterations after uncrush: 722

Solved with dual simplex
Solved in 3465 iterations and 71.89 seconds (9.98 work units)
Optimal objective -1.042647483e+05
